(declare-fun _substvar_190_ () Real)
(declare-fun _substvar_198_ () Bool)
(declare-const r0 Real)
(declare-const r2 Real)
(declare-const r3 Real)
(declare-const r5 Real)
(declare-const r6 Real)
(declare-const r8 Real)
(declare-const r10 Real)
(assert (= (+ 15351.13 r2 (* 8347837.0 8347837.0 r3) r3 r3) (* r3 (* 15351.13 (+ r3 (+ 15351.13 r2 (* 8347837.0 8347837.0 r3) r3 r3) 740.8 (* r8 r5 r6 r3 r0)) r2 19983.0 (* r8 r5 r6 r3 r0)) r0 r5 15351.13) 19983.0 _substvar_190_ r10))
(assert (or (distinct (/ (+ r3 (+ 15351.13 r2 (* 8347837.0 8347837.0 r3) r3 r3) 740.8 r6) (* r8 r5 r6 r3 r0)) 0.0 15351.13 r5 r8) _substvar_198_))
(check-sat)
